; Benchmark for LTL-sketching problem
(set-logic QF_UF)
(set-info :status unknown)
(declare-fun z_1_0_0 () Bool)
(declare-fun z_0_0_0 () Bool)
(declare-fun x_0_! () Bool)
(declare-fun z_1_0_1 () Bool)
(declare-fun x_0_X () Bool)
(declare-fun z_0_0_1 () Bool)
(declare-fun x_0_F () Bool)
(declare-fun x_0_G () Bool)
(declare-fun z_1_1_0 () Bool)
(declare-fun z_0_1_0 () Bool)
(declare-fun z_1_1_1 () Bool)
(declare-fun z_0_1_1 () Bool)
(declare-fun z_1_1_2 () Bool)
(declare-fun z_0_1_2 () Bool)
(declare-fun z_1_1_3 () Bool)
(declare-fun z_0_1_3 () Bool)
(declare-fun z_1_1_4 () Bool)
(declare-fun z_0_1_4 () Bool)
(declare-fun z_1_1_5 () Bool)
(declare-fun z_0_1_5 () Bool)
(declare-fun z_1_1_6 () Bool)
(declare-fun z_0_1_6 () Bool)
(declare-fun z_1_2_0 () Bool)
(declare-fun z_0_2_0 () Bool)
(declare-fun z_1_2_1 () Bool)
(declare-fun z_0_2_1 () Bool)
(declare-fun z_1_2_2 () Bool)
(declare-fun z_0_2_2 () Bool)
(declare-fun z_1_2_3 () Bool)
(declare-fun z_0_2_3 () Bool)
(declare-fun z_1_2_4 () Bool)
(declare-fun z_0_2_4 () Bool)
(declare-fun z_1_2_5 () Bool)
(declare-fun z_0_2_5 () Bool)
(declare-fun z_1_2_6 () Bool)
(declare-fun z_0_2_6 () Bool)
(declare-fun z_1_3_0 () Bool)
(declare-fun z_0_3_0 () Bool)
(declare-fun z_1_3_1 () Bool)
(declare-fun z_0_3_1 () Bool)
(declare-fun z_1_3_2 () Bool)
(declare-fun z_0_3_2 () Bool)
(declare-fun z_1_4_0 () Bool)
(declare-fun z_0_4_0 () Bool)
(declare-fun z_1_4_1 () Bool)
(declare-fun z_0_4_1 () Bool)
(declare-fun z_1_4_2 () Bool)
(declare-fun z_0_4_2 () Bool)
(declare-fun z_1_4_3 () Bool)
(declare-fun z_0_4_3 () Bool)
(declare-fun z_1_4_4 () Bool)
(declare-fun z_0_4_4 () Bool)
(declare-fun z_1_5_0 () Bool)
(declare-fun z_0_5_0 () Bool)
(declare-fun z_1_5_1 () Bool)
(declare-fun z_0_5_1 () Bool)
(declare-fun z_1_5_2 () Bool)
(declare-fun z_0_5_2 () Bool)
(declare-fun z_1_5_3 () Bool)
(declare-fun z_0_5_3 () Bool)
(declare-fun z_1_5_4 () Bool)
(declare-fun z_0_5_4 () Bool)
(declare-fun z_1_5_5 () Bool)
(declare-fun z_0_5_5 () Bool)
(declare-fun z_1_6_0 () Bool)
(declare-fun z_0_6_0 () Bool)
(declare-fun z_1_6_1 () Bool)
(declare-fun z_0_6_1 () Bool)
(declare-fun z_1_6_2 () Bool)
(declare-fun z_0_6_2 () Bool)
(declare-fun z_1_6_3 () Bool)
(declare-fun z_0_6_3 () Bool)
(declare-fun z_1_6_4 () Bool)
(declare-fun z_0_6_4 () Bool)
(declare-fun z_1_7_0 () Bool)
(declare-fun z_0_7_0 () Bool)
(declare-fun z_1_7_1 () Bool)
(declare-fun z_0_7_1 () Bool)
(declare-fun z_1_7_2 () Bool)
(declare-fun z_0_7_2 () Bool)
(declare-fun z_1_7_3 () Bool)
(declare-fun z_0_7_3 () Bool)
(declare-fun z_1_7_4 () Bool)
(declare-fun z_0_7_4 () Bool)
(declare-fun z_1_8_0 () Bool)
(declare-fun z_0_8_0 () Bool)
(declare-fun z_1_8_1 () Bool)
(declare-fun z_0_8_1 () Bool)
(declare-fun z_1_8_2 () Bool)
(declare-fun z_0_8_2 () Bool)
(declare-fun z_1_8_3 () Bool)
(declare-fun z_0_8_3 () Bool)
(declare-fun z_1_8_4 () Bool)
(declare-fun z_0_8_4 () Bool)
(declare-fun z_1_8_5 () Bool)
(declare-fun z_0_8_5 () Bool)
(declare-fun z_1_8_6 () Bool)
(declare-fun z_0_8_6 () Bool)
(declare-fun z_1_9_0 () Bool)
(declare-fun z_0_9_0 () Bool)
(declare-fun z_1_9_1 () Bool)
(declare-fun z_0_9_1 () Bool)
(declare-fun z_1_9_2 () Bool)
(declare-fun z_0_9_2 () Bool)
(declare-fun z_1_9_3 () Bool)
(declare-fun z_0_9_3 () Bool)
(declare-fun z_1_9_4 () Bool)
(declare-fun z_0_9_4 () Bool)
(declare-fun z_1_10_0 () Bool)
(declare-fun z_0_10_0 () Bool)
(declare-fun z_1_11_0 () Bool)
(declare-fun z_0_11_0 () Bool)
(declare-fun z_1_12_0 () Bool)
(declare-fun z_0_12_0 () Bool)
(declare-fun z_1_13_0 () Bool)
(declare-fun z_0_13_0 () Bool)
(declare-fun z_1_14_0 () Bool)
(declare-fun z_0_14_0 () Bool)
(declare-fun z_1_15_0 () Bool)
(declare-fun z_0_15_0 () Bool)
(declare-fun z_1_16_0 () Bool)
(declare-fun z_0_16_0 () Bool)
(declare-fun z_1_17_0 () Bool)
(declare-fun z_0_17_0 () Bool)
(declare-fun z_1_18_0 () Bool)
(declare-fun z_0_18_0 () Bool)
(declare-fun z_1_19_0 () Bool)
(declare-fun z_0_19_0 () Bool)
(assert
 (=> x_0_! (= z_0_0_0 (not z_1_0_0))))
(assert
 (let (($x35 (= z_0_0_0 z_1_0_1)))
 (=> x_0_X $x35)))
(assert
 (let (($x42 (= z_0_0_0 (or z_1_0_0 z_0_0_1))))
 (=> x_0_F $x42)))
(assert
 (let (($x48 (= z_0_0_0 (and z_1_0_0 z_0_0_1))))
 (=> x_0_G $x48)))
(assert
 (=> x_0_! (= z_0_0_1 (not z_1_0_1))))
(assert
 (let (($x58 (= z_0_0_1 z_1_0_0)))
 (=> x_0_X $x58)))
(assert
 (let (($x62 (= z_0_0_1 (or z_1_0_0 z_1_0_1))))
 (=> x_0_F $x62)))
(assert
 (let (($x66 (= z_0_0_1 (and z_1_0_0 z_1_0_1))))
 (=> x_0_G $x66)))
(assert
 (=> x_0_! (= z_0_1_0 (not z_1_1_0))))
(assert
 (let (($x78 (= z_0_1_0 z_1_1_1)))
 (=> x_0_X $x78)))
(assert
 (let (($x83 (= z_0_1_0 (or z_1_1_0 z_0_1_1))))
 (=> x_0_F $x83)))
(assert
 (let (($x87 (= z_0_1_0 (and z_1_1_0 z_0_1_1))))
 (=> x_0_G $x87)))
(assert
 (=> x_0_! (= z_0_1_1 (not z_1_1_1))))
(assert
 (let (($x97 (= z_0_1_1 z_1_1_2)))
 (=> x_0_X $x97)))
(assert
 (let (($x102 (= z_0_1_1 (or z_1_1_1 z_0_1_2))))
 (=> x_0_F $x102)))
(assert
 (let (($x106 (= z_0_1_1 (and z_1_1_1 z_0_1_2))))
 (=> x_0_G $x106)))
(assert
 (=> x_0_! (= z_0_1_2 (not z_1_1_2))))
(assert
 (let (($x116 (= z_0_1_2 z_1_1_3)))
 (=> x_0_X $x116)))
(assert
 (let (($x121 (= z_0_1_2 (or z_1_1_2 z_0_1_3))))
 (=> x_0_F $x121)))
(assert
 (let (($x125 (= z_0_1_2 (and z_1_1_2 z_0_1_3))))
 (=> x_0_G $x125)))
(assert
 (=> x_0_! (= z_0_1_3 (not z_1_1_3))))
(assert
 (let (($x135 (= z_0_1_3 z_1_1_4)))
 (=> x_0_X $x135)))
(assert
 (let (($x140 (= z_0_1_3 (or z_1_1_3 z_0_1_4))))
 (=> x_0_F $x140)))
(assert
 (let (($x144 (= z_0_1_3 (and z_1_1_3 z_0_1_4))))
 (=> x_0_G $x144)))
(assert
 (=> x_0_! (= z_0_1_4 (not z_1_1_4))))
(assert
 (let (($x154 (= z_0_1_4 z_1_1_5)))
 (=> x_0_X $x154)))
(assert
 (let (($x159 (= z_0_1_4 (or z_1_1_4 z_0_1_5))))
 (=> x_0_F $x159)))
(assert
 (let (($x163 (= z_0_1_4 (and z_1_1_4 z_0_1_5))))
 (=> x_0_G $x163)))
(assert
 (=> x_0_! (= z_0_1_5 (not z_1_1_5))))
(assert
 (let (($x173 (= z_0_1_5 z_1_1_6)))
 (=> x_0_X $x173)))
(assert
 (let (($x178 (= z_0_1_5 (or z_1_1_5 z_0_1_6))))
 (=> x_0_F $x178)))
(assert
 (let (($x182 (= z_0_1_5 (and z_1_1_5 z_0_1_6))))
 (=> x_0_G $x182)))
(assert
 (=> x_0_! (= z_0_1_6 (not z_1_1_6))))
(assert
 (let (($x191 (= z_0_1_6 z_1_1_3)))
 (=> x_0_X $x191)))
(assert
 (let (($x195 (= z_0_1_6 (or z_1_1_3 z_1_1_4 z_1_1_5 z_1_1_6))))
 (=> x_0_F $x195)))
(assert
 (let (($x199 (= z_0_1_6 (and z_1_1_3 z_1_1_4 z_1_1_5 z_1_1_6))))
 (=> x_0_G $x199)))
(assert
 (=> x_0_! (= z_0_2_0 (not z_1_2_0))))
(assert
 (let (($x211 (= z_0_2_0 z_1_2_1)))
 (=> x_0_X $x211)))
(assert
 (let (($x216 (= z_0_2_0 (or z_1_2_0 z_0_2_1))))
 (=> x_0_F $x216)))
(assert
 (let (($x220 (= z_0_2_0 (and z_1_2_0 z_0_2_1))))
 (=> x_0_G $x220)))
(assert
 (=> x_0_! (= z_0_2_1 (not z_1_2_1))))
(assert
 (let (($x230 (= z_0_2_1 z_1_2_2)))
 (=> x_0_X $x230)))
(assert
 (let (($x235 (= z_0_2_1 (or z_1_2_1 z_0_2_2))))
 (=> x_0_F $x235)))
(assert
 (let (($x239 (= z_0_2_1 (and z_1_2_1 z_0_2_2))))
 (=> x_0_G $x239)))
(assert
 (=> x_0_! (= z_0_2_2 (not z_1_2_2))))
(assert
 (let (($x249 (= z_0_2_2 z_1_2_3)))
 (=> x_0_X $x249)))
(assert
 (let (($x254 (= z_0_2_2 (or z_1_2_2 z_0_2_3))))
 (=> x_0_F $x254)))
(assert
 (let (($x258 (= z_0_2_2 (and z_1_2_2 z_0_2_3))))
 (=> x_0_G $x258)))
(assert
 (=> x_0_! (= z_0_2_3 (not z_1_2_3))))
(assert
 (let (($x268 (= z_0_2_3 z_1_2_4)))
 (=> x_0_X $x268)))
(assert
 (let (($x273 (= z_0_2_3 (or z_1_2_3 z_0_2_4))))
 (=> x_0_F $x273)))
(assert
 (let (($x277 (= z_0_2_3 (and z_1_2_3 z_0_2_4))))
 (=> x_0_G $x277)))
(assert
 (=> x_0_! (= z_0_2_4 (not z_1_2_4))))
(assert
 (let (($x287 (= z_0_2_4 z_1_2_5)))
 (=> x_0_X $x287)))
(assert
 (let (($x292 (= z_0_2_4 (or z_1_2_4 z_0_2_5))))
 (=> x_0_F $x292)))
(assert
 (let (($x296 (= z_0_2_4 (and z_1_2_4 z_0_2_5))))
 (=> x_0_G $x296)))
(assert
 (=> x_0_! (= z_0_2_5 (not z_1_2_5))))
(assert
 (let (($x306 (= z_0_2_5 z_1_2_6)))
 (=> x_0_X $x306)))
(assert
 (let (($x311 (= z_0_2_5 (or z_1_2_5 z_0_2_6))))
 (=> x_0_F $x311)))
(assert
 (let (($x315 (= z_0_2_5 (and z_1_2_5 z_0_2_6))))
 (=> x_0_G $x315)))
(assert
 (=> x_0_! (= z_0_2_6 (not z_1_2_6))))
(assert
 (let (($x324 (= z_0_2_6 z_1_2_3)))
 (=> x_0_X $x324)))
(assert
 (let (($x328 (= z_0_2_6 (or z_1_2_3 z_1_2_4 z_1_2_5 z_1_2_6))))
 (=> x_0_F $x328)))
(assert
 (let (($x332 (= z_0_2_6 (and z_1_2_3 z_1_2_4 z_1_2_5 z_1_2_6))))
 (=> x_0_G $x332)))
(assert
 (=> x_0_! (= z_0_3_0 (not z_1_3_0))))
(assert
 (let (($x344 (= z_0_3_0 z_1_3_1)))
 (=> x_0_X $x344)))
(assert
 (let (($x349 (= z_0_3_0 (or z_1_3_0 z_0_3_1))))
 (=> x_0_F $x349)))
(assert
 (let (($x353 (= z_0_3_0 (and z_1_3_0 z_0_3_1))))
 (=> x_0_G $x353)))
(assert
 (=> x_0_! (= z_0_3_1 (not z_1_3_1))))
(assert
 (let (($x363 (= z_0_3_1 z_1_3_2)))
 (=> x_0_X $x363)))
(assert
 (let (($x368 (= z_0_3_1 (or z_1_3_1 z_0_3_2))))
 (=> x_0_F $x368)))
(assert
 (let (($x372 (= z_0_3_1 (and z_1_3_1 z_0_3_2))))
 (=> x_0_G $x372)))
(assert
 (=> x_0_! (= z_0_3_2 (not z_1_3_2))))
(assert
 (let (($x381 (= z_0_3_2 z_1_3_2)))
 (=> x_0_X $x381)))
(assert
 (=> x_0_F (= z_0_3_2 (or z_1_3_2))))
(assert
 (=> x_0_G (= z_0_3_2 (and z_1_3_2))))
(assert
 (=> x_0_! (= z_0_4_0 (not z_1_4_0))))
(assert
 (let (($x401 (= z_0_4_0 z_1_4_1)))
 (=> x_0_X $x401)))
(assert
 (let (($x406 (= z_0_4_0 (or z_1_4_0 z_0_4_1))))
 (=> x_0_F $x406)))
(assert
 (let (($x410 (= z_0_4_0 (and z_1_4_0 z_0_4_1))))
 (=> x_0_G $x410)))
(assert
 (=> x_0_! (= z_0_4_1 (not z_1_4_1))))
(assert
 (let (($x420 (= z_0_4_1 z_1_4_2)))
 (=> x_0_X $x420)))
(assert
 (let (($x425 (= z_0_4_1 (or z_1_4_1 z_0_4_2))))
 (=> x_0_F $x425)))
(assert
 (let (($x429 (= z_0_4_1 (and z_1_4_1 z_0_4_2))))
 (=> x_0_G $x429)))
(assert
 (=> x_0_! (= z_0_4_2 (not z_1_4_2))))
(assert
 (let (($x439 (= z_0_4_2 z_1_4_3)))
 (=> x_0_X $x439)))
(assert
 (let (($x444 (= z_0_4_2 (or z_1_4_2 z_0_4_3))))
 (=> x_0_F $x444)))
(assert
 (let (($x448 (= z_0_4_2 (and z_1_4_2 z_0_4_3))))
 (=> x_0_G $x448)))
(assert
 (=> x_0_! (= z_0_4_3 (not z_1_4_3))))
(assert
 (let (($x458 (= z_0_4_3 z_1_4_4)))
 (=> x_0_X $x458)))
(assert
 (let (($x463 (= z_0_4_3 (or z_1_4_3 z_0_4_4))))
 (=> x_0_F $x463)))
(assert
 (let (($x467 (= z_0_4_3 (and z_1_4_3 z_0_4_4))))
 (=> x_0_G $x467)))
(assert
 (=> x_0_! (= z_0_4_4 (not z_1_4_4))))
(assert
 (let (($x476 (= z_0_4_4 z_1_4_2)))
 (=> x_0_X $x476)))
(assert
 (let (($x480 (= z_0_4_4 (or z_1_4_2 z_1_4_3 z_1_4_4))))
 (=> x_0_F $x480)))
(assert
 (let (($x484 (= z_0_4_4 (and z_1_4_2 z_1_4_3 z_1_4_4))))
 (=> x_0_G $x484)))
(assert
 (=> x_0_! (= z_0_5_0 (not z_1_5_0))))
(assert
 (let (($x496 (= z_0_5_0 z_1_5_1)))
 (=> x_0_X $x496)))
(assert
 (let (($x501 (= z_0_5_0 (or z_1_5_0 z_0_5_1))))
 (=> x_0_F $x501)))
(assert
 (let (($x505 (= z_0_5_0 (and z_1_5_0 z_0_5_1))))
 (=> x_0_G $x505)))
(assert
 (=> x_0_! (= z_0_5_1 (not z_1_5_1))))
(assert
 (let (($x515 (= z_0_5_1 z_1_5_2)))
 (=> x_0_X $x515)))
(assert
 (let (($x520 (= z_0_5_1 (or z_1_5_1 z_0_5_2))))
 (=> x_0_F $x520)))
(assert
 (let (($x524 (= z_0_5_1 (and z_1_5_1 z_0_5_2))))
 (=> x_0_G $x524)))
(assert
 (=> x_0_! (= z_0_5_2 (not z_1_5_2))))
(assert
 (let (($x534 (= z_0_5_2 z_1_5_3)))
 (=> x_0_X $x534)))
(assert
 (let (($x539 (= z_0_5_2 (or z_1_5_2 z_0_5_3))))
 (=> x_0_F $x539)))
(assert
 (let (($x543 (= z_0_5_2 (and z_1_5_2 z_0_5_3))))
 (=> x_0_G $x543)))
(assert
 (=> x_0_! (= z_0_5_3 (not z_1_5_3))))
(assert
 (let (($x553 (= z_0_5_3 z_1_5_4)))
 (=> x_0_X $x553)))
(assert
 (let (($x558 (= z_0_5_3 (or z_1_5_3 z_0_5_4))))
 (=> x_0_F $x558)))
(assert
 (let (($x562 (= z_0_5_3 (and z_1_5_3 z_0_5_4))))
 (=> x_0_G $x562)))
(assert
 (=> x_0_! (= z_0_5_4 (not z_1_5_4))))
(assert
 (let (($x572 (= z_0_5_4 z_1_5_5)))
 (=> x_0_X $x572)))
(assert
 (let (($x577 (= z_0_5_4 (or z_1_5_4 z_0_5_5))))
 (=> x_0_F $x577)))
(assert
 (let (($x581 (= z_0_5_4 (and z_1_5_4 z_0_5_5))))
 (=> x_0_G $x581)))
(assert
 (=> x_0_! (= z_0_5_5 (not z_1_5_5))))
(assert
 (let (($x590 (= z_0_5_5 z_1_5_4)))
 (=> x_0_X $x590)))
(assert
 (let (($x594 (= z_0_5_5 (or z_1_5_4 z_1_5_5))))
 (=> x_0_F $x594)))
(assert
 (let (($x598 (= z_0_5_5 (and z_1_5_4 z_1_5_5))))
 (=> x_0_G $x598)))
(assert
 (=> x_0_! (= z_0_6_0 (not z_1_6_0))))
(assert
 (let (($x610 (= z_0_6_0 z_1_6_1)))
 (=> x_0_X $x610)))
(assert
 (let (($x615 (= z_0_6_0 (or z_1_6_0 z_0_6_1))))
 (=> x_0_F $x615)))
(assert
 (let (($x619 (= z_0_6_0 (and z_1_6_0 z_0_6_1))))
 (=> x_0_G $x619)))
(assert
 (=> x_0_! (= z_0_6_1 (not z_1_6_1))))
(assert
 (let (($x629 (= z_0_6_1 z_1_6_2)))
 (=> x_0_X $x629)))
(assert
 (let (($x634 (= z_0_6_1 (or z_1_6_1 z_0_6_2))))
 (=> x_0_F $x634)))
(assert
 (let (($x638 (= z_0_6_1 (and z_1_6_1 z_0_6_2))))
 (=> x_0_G $x638)))
(assert
 (=> x_0_! (= z_0_6_2 (not z_1_6_2))))
(assert
 (let (($x648 (= z_0_6_2 z_1_6_3)))
 (=> x_0_X $x648)))
(assert
 (let (($x653 (= z_0_6_2 (or z_1_6_2 z_0_6_3))))
 (=> x_0_F $x653)))
(assert
 (let (($x657 (= z_0_6_2 (and z_1_6_2 z_0_6_3))))
 (=> x_0_G $x657)))
(assert
 (=> x_0_! (= z_0_6_3 (not z_1_6_3))))
(assert
 (let (($x667 (= z_0_6_3 z_1_6_4)))
 (=> x_0_X $x667)))
(assert
 (let (($x672 (= z_0_6_3 (or z_1_6_3 z_0_6_4))))
 (=> x_0_F $x672)))
(assert
 (let (($x676 (= z_0_6_3 (and z_1_6_3 z_0_6_4))))
 (=> x_0_G $x676)))
(assert
 (=> x_0_! (= z_0_6_4 (not z_1_6_4))))
(assert
 (let (($x685 (= z_0_6_4 z_1_6_1)))
 (=> x_0_X $x685)))
(assert
 (let (($x689 (= z_0_6_4 (or z_1_6_1 z_1_6_2 z_1_6_3 z_1_6_4))))
 (=> x_0_F $x689)))
(assert
 (let (($x693 (= z_0_6_4 (and z_1_6_1 z_1_6_2 z_1_6_3 z_1_6_4))))
 (=> x_0_G $x693)))
(assert
 (=> x_0_! (= z_0_7_0 (not z_1_7_0))))
(assert
 (let (($x705 (= z_0_7_0 z_1_7_1)))
 (=> x_0_X $x705)))
(assert
 (let (($x710 (= z_0_7_0 (or z_1_7_0 z_0_7_1))))
 (=> x_0_F $x710)))
(assert
 (let (($x714 (= z_0_7_0 (and z_1_7_0 z_0_7_1))))
 (=> x_0_G $x714)))
(assert
 (=> x_0_! (= z_0_7_1 (not z_1_7_1))))
(assert
 (let (($x724 (= z_0_7_1 z_1_7_2)))
 (=> x_0_X $x724)))
(assert
 (let (($x729 (= z_0_7_1 (or z_1_7_1 z_0_7_2))))
 (=> x_0_F $x729)))
(assert
 (let (($x733 (= z_0_7_1 (and z_1_7_1 z_0_7_2))))
 (=> x_0_G $x733)))
(assert
 (=> x_0_! (= z_0_7_2 (not z_1_7_2))))
(assert
 (let (($x743 (= z_0_7_2 z_1_7_3)))
 (=> x_0_X $x743)))
(assert
 (let (($x748 (= z_0_7_2 (or z_1_7_2 z_0_7_3))))
 (=> x_0_F $x748)))
(assert
 (let (($x752 (= z_0_7_2 (and z_1_7_2 z_0_7_3))))
 (=> x_0_G $x752)))
(assert
 (=> x_0_! (= z_0_7_3 (not z_1_7_3))))
(assert
 (let (($x762 (= z_0_7_3 z_1_7_4)))
 (=> x_0_X $x762)))
(assert
 (let (($x767 (= z_0_7_3 (or z_1_7_3 z_0_7_4))))
 (=> x_0_F $x767)))
(assert
 (let (($x771 (= z_0_7_3 (and z_1_7_3 z_0_7_4))))
 (=> x_0_G $x771)))
(assert
 (=> x_0_! (= z_0_7_4 (not z_1_7_4))))
(assert
 (let (($x780 (= z_0_7_4 z_1_7_2)))
 (=> x_0_X $x780)))
(assert
 (let (($x784 (= z_0_7_4 (or z_1_7_2 z_1_7_3 z_1_7_4))))
 (=> x_0_F $x784)))
(assert
 (let (($x788 (= z_0_7_4 (and z_1_7_2 z_1_7_3 z_1_7_4))))
 (=> x_0_G $x788)))
(assert
 (=> x_0_! (= z_0_8_0 (not z_1_8_0))))
(assert
 (let (($x800 (= z_0_8_0 z_1_8_1)))
 (=> x_0_X $x800)))
(assert
 (let (($x805 (= z_0_8_0 (or z_1_8_0 z_0_8_1))))
 (=> x_0_F $x805)))
(assert
 (let (($x809 (= z_0_8_0 (and z_1_8_0 z_0_8_1))))
 (=> x_0_G $x809)))
(assert
 (=> x_0_! (= z_0_8_1 (not z_1_8_1))))
(assert
 (let (($x819 (= z_0_8_1 z_1_8_2)))
 (=> x_0_X $x819)))
(assert
 (let (($x824 (= z_0_8_1 (or z_1_8_1 z_0_8_2))))
 (=> x_0_F $x824)))
(assert
 (let (($x828 (= z_0_8_1 (and z_1_8_1 z_0_8_2))))
 (=> x_0_G $x828)))
(assert
 (=> x_0_! (= z_0_8_2 (not z_1_8_2))))
(assert
 (let (($x838 (= z_0_8_2 z_1_8_3)))
 (=> x_0_X $x838)))
(assert
 (let (($x843 (= z_0_8_2 (or z_1_8_2 z_0_8_3))))
 (=> x_0_F $x843)))
(assert
 (let (($x847 (= z_0_8_2 (and z_1_8_2 z_0_8_3))))
 (=> x_0_G $x847)))
(assert
 (=> x_0_! (= z_0_8_3 (not z_1_8_3))))
(assert
 (let (($x857 (= z_0_8_3 z_1_8_4)))
 (=> x_0_X $x857)))
(assert
 (let (($x862 (= z_0_8_3 (or z_1_8_3 z_0_8_4))))
 (=> x_0_F $x862)))
(assert
 (let (($x866 (= z_0_8_3 (and z_1_8_3 z_0_8_4))))
 (=> x_0_G $x866)))
(assert
 (=> x_0_! (= z_0_8_4 (not z_1_8_4))))
(assert
 (let (($x876 (= z_0_8_4 z_1_8_5)))
 (=> x_0_X $x876)))
(assert
 (let (($x881 (= z_0_8_4 (or z_1_8_4 z_0_8_5))))
 (=> x_0_F $x881)))
(assert
 (let (($x885 (= z_0_8_4 (and z_1_8_4 z_0_8_5))))
 (=> x_0_G $x885)))
(assert
 (=> x_0_! (= z_0_8_5 (not z_1_8_5))))
(assert
 (let (($x895 (= z_0_8_5 z_1_8_6)))
 (=> x_0_X $x895)))
(assert
 (let (($x900 (= z_0_8_5 (or z_1_8_5 z_0_8_6))))
 (=> x_0_F $x900)))
(assert
 (let (($x904 (= z_0_8_5 (and z_1_8_5 z_0_8_6))))
 (=> x_0_G $x904)))
(assert
 (=> x_0_! (= z_0_8_6 (not z_1_8_6))))
(assert
 (let (($x913 (= z_0_8_6 z_1_8_4)))
 (=> x_0_X $x913)))
(assert
 (let (($x917 (= z_0_8_6 (or z_1_8_4 z_1_8_5 z_1_8_6))))
 (=> x_0_F $x917)))
(assert
 (let (($x921 (= z_0_8_6 (and z_1_8_4 z_1_8_5 z_1_8_6))))
 (=> x_0_G $x921)))
(assert
 (=> x_0_! (= z_0_9_0 (not z_1_9_0))))
(assert
 (let (($x933 (= z_0_9_0 z_1_9_1)))
 (=> x_0_X $x933)))
(assert
 (let (($x938 (= z_0_9_0 (or z_1_9_0 z_0_9_1))))
 (=> x_0_F $x938)))
(assert
 (let (($x942 (= z_0_9_0 (and z_1_9_0 z_0_9_1))))
 (=> x_0_G $x942)))
(assert
 (=> x_0_! (= z_0_9_1 (not z_1_9_1))))
(assert
 (let (($x952 (= z_0_9_1 z_1_9_2)))
 (=> x_0_X $x952)))
(assert
 (let (($x957 (= z_0_9_1 (or z_1_9_1 z_0_9_2))))
 (=> x_0_F $x957)))
(assert
 (let (($x961 (= z_0_9_1 (and z_1_9_1 z_0_9_2))))
 (=> x_0_G $x961)))
(assert
 (=> x_0_! (= z_0_9_2 (not z_1_9_2))))
(assert
 (let (($x971 (= z_0_9_2 z_1_9_3)))
 (=> x_0_X $x971)))
(assert
 (let (($x976 (= z_0_9_2 (or z_1_9_2 z_0_9_3))))
 (=> x_0_F $x976)))
(assert
 (let (($x980 (= z_0_9_2 (and z_1_9_2 z_0_9_3))))
 (=> x_0_G $x980)))
(assert
 (=> x_0_! (= z_0_9_3 (not z_1_9_3))))
(assert
 (let (($x990 (= z_0_9_3 z_1_9_4)))
 (=> x_0_X $x990)))
(assert
 (let (($x995 (= z_0_9_3 (or z_1_9_3 z_0_9_4))))
 (=> x_0_F $x995)))
(assert
 (let (($x999 (= z_0_9_3 (and z_1_9_3 z_0_9_4))))
 (=> x_0_G $x999)))
(assert
 (=> x_0_! (= z_0_9_4 (not z_1_9_4))))
(assert
 (let (($x1008 (= z_0_9_4 z_1_9_3)))
 (=> x_0_X $x1008)))
(assert
 (let (($x1012 (= z_0_9_4 (or z_1_9_3 z_1_9_4))))
 (=> x_0_F $x1012)))
(assert
 (let (($x1016 (= z_0_9_4 (and z_1_9_3 z_1_9_4))))
 (=> x_0_G $x1016)))
(assert
 (=> x_0_! (= z_0_10_0 (not z_1_10_0))))
(assert
 (let (($x1027 (= z_0_10_0 z_1_10_0)))
 (=> x_0_X $x1027)))
(assert
 (=> x_0_F (= z_0_10_0 (or z_1_10_0))))
(assert
 (=> x_0_G (= z_0_10_0 (and z_1_10_0))))
(assert
 (=> x_0_! (= z_0_11_0 (not z_1_11_0))))
(assert
 (let (($x1046 (= z_0_11_0 z_1_11_0)))
 (=> x_0_X $x1046)))
(assert
 (=> x_0_F (= z_0_11_0 (or z_1_11_0))))
(assert
 (=> x_0_G (= z_0_11_0 (and z_1_11_0))))
(assert
 (=> x_0_! (= z_0_12_0 (not z_1_12_0))))
(assert
 (let (($x1065 (= z_0_12_0 z_1_12_0)))
 (=> x_0_X $x1065)))
(assert
 (=> x_0_F (= z_0_12_0 (or z_1_12_0))))
(assert
 (=> x_0_G (= z_0_12_0 (and z_1_12_0))))
(assert
 (=> x_0_! (= z_0_13_0 (not z_1_13_0))))
(assert
 (let (($x1084 (= z_0_13_0 z_1_13_0)))
 (=> x_0_X $x1084)))
(assert
 (=> x_0_F (= z_0_13_0 (or z_1_13_0))))
(assert
 (=> x_0_G (= z_0_13_0 (and z_1_13_0))))
(assert
 (=> x_0_! (= z_0_14_0 (not z_1_14_0))))
(assert
 (let (($x1103 (= z_0_14_0 z_1_14_0)))
 (=> x_0_X $x1103)))
(assert
 (=> x_0_F (= z_0_14_0 (or z_1_14_0))))
(assert
 (=> x_0_G (= z_0_14_0 (and z_1_14_0))))
(assert
 (=> x_0_! (= z_0_15_0 (not z_1_15_0))))
(assert
 (let (($x1122 (= z_0_15_0 z_1_15_0)))
 (=> x_0_X $x1122)))
(assert
 (=> x_0_F (= z_0_15_0 (or z_1_15_0))))
(assert
 (=> x_0_G (= z_0_15_0 (and z_1_15_0))))
(assert
 (=> x_0_! (= z_0_16_0 (not z_1_16_0))))
(assert
 (let (($x1141 (= z_0_16_0 z_1_16_0)))
 (=> x_0_X $x1141)))
(assert
 (=> x_0_F (= z_0_16_0 (or z_1_16_0))))
(assert
 (=> x_0_G (= z_0_16_0 (and z_1_16_0))))
(assert
 (=> x_0_! (= z_0_17_0 (not z_1_17_0))))
(assert
 (let (($x1160 (= z_0_17_0 z_1_17_0)))
 (=> x_0_X $x1160)))
(assert
 (=> x_0_F (= z_0_17_0 (or z_1_17_0))))
(assert
 (=> x_0_G (= z_0_17_0 (and z_1_17_0))))
(assert
 (=> x_0_! (= z_0_18_0 (not z_1_18_0))))
(assert
 (let (($x1179 (= z_0_18_0 z_1_18_0)))
 (=> x_0_X $x1179)))
(assert
 (=> x_0_F (= z_0_18_0 (or z_1_18_0))))
(assert
 (=> x_0_G (= z_0_18_0 (and z_1_18_0))))
(assert
 (=> x_0_! (= z_0_19_0 (not z_1_19_0))))
(assert
 (let (($x1198 (= z_0_19_0 z_1_19_0)))
 (=> x_0_X $x1198)))
(assert
 (=> x_0_F (= z_0_19_0 (or z_1_19_0))))
(assert
 (=> x_0_G (= z_0_19_0 (and z_1_19_0))))
(assert
 (or x_0_! x_0_X x_0_F x_0_G))
(assert
 (let (($x50 (not x_0_G)))
 (let (($x44 (not x_0_F)))
 (let (($x1215 (or $x44 $x50)))
 (let (($x37 (not x_0_X)))
 (let (($x1214 (or $x37 $x50)))
 (let (($x1213 (or $x37 $x44)))
 (let (($x31 (not x_0_!)))
 (let (($x1212 (or $x31 $x50)))
 (let (($x1211 (or $x31 $x44)))
 (let (($x1210 (or $x31 $x37)))
 (and $x1210 $x1211 $x1212 $x1213 $x1214 $x1215))))))))))))
(assert
 (= z_0_0_0 true))
(assert
 (= z_0_1_0 true))
(assert
 (= z_0_2_0 true))
(assert
 (= z_0_3_0 true))
(assert
 (= z_0_4_0 true))
(assert
 (= z_0_5_0 true))
(assert
 (= z_0_6_0 true))
(assert
 (= z_0_7_0 true))
(assert
 (= z_0_8_0 true))
(assert
 (= z_0_9_0 true))
(assert
 (= z_0_10_0 false))
(assert
 (= z_0_11_0 false))
(assert
 (= z_0_12_0 false))
(assert
 (= z_0_13_0 false))
(assert
 (= z_0_14_0 false))
(assert
 (= z_0_15_0 false))
(assert
 (= z_0_16_0 false))
(assert
 (= z_0_17_0 false))
(assert
 (= z_0_18_0 false))
(assert
 (= z_0_19_0 false))
(assert
 (let (($x1247 (= z_1_0_0 z_1_5_4)))
 (and $x1247)))
(assert
 (let (($x1249 (= z_1_0_1 z_1_5_5)))
 (and $x1249)))
(assert
 (let (($x1251 (= z_1_0_0 z_1_9_4)))
 (and $x1251)))
(assert
 (let (($x1253 (= z_1_0_1 z_1_9_3)))
 (and $x1253)))
(assert
 (let (($x1255 (= z_1_2_2 z_1_6_0)))
 (and $x1255)))
(assert
 (let (($x1257 (= z_1_2_3 z_1_6_1)))
 (and $x1257)))
(assert
 (let (($x1259 (= z_1_2_4 z_1_6_2)))
 (and $x1259)))
(assert
 (let (($x1261 (= z_1_2_5 z_1_6_3)))
 (and $x1261)))
(assert
 (let (($x1263 (= z_1_2_6 z_1_6_4)))
 (and $x1263)))
(assert
 (let (($x1265 (= z_1_3_2 z_1_10_0)))
 (and $x1265)))
(assert
 (let (($x1267 (= z_1_3_2 z_1_11_0)))
 (and $x1267)))
(assert
 (let (($x1269 (= z_1_3_2 z_1_12_0)))
 (and $x1269)))
(assert
 (let (($x1271 (= z_1_3_2 z_1_13_0)))
 (and $x1271)))
(assert
 (let (($x1273 (= z_1_3_2 z_1_14_0)))
 (and $x1273)))
(assert
 (let (($x1275 (= z_1_3_2 z_1_15_0)))
 (and $x1275)))
(assert
 (let (($x1277 (= z_1_3_2 z_1_16_0)))
 (and $x1277)))
(assert
 (let (($x1279 (= z_1_3_2 z_1_17_0)))
 (and $x1279)))
(assert
 (let (($x1281 (= z_1_3_2 z_1_18_0)))
 (and $x1281)))
(assert
 (let (($x1283 (= z_1_3_2 z_1_19_0)))
 (and $x1283)))
(assert
 (let (($x1285 (= z_1_4_0 z_1_7_0)))
 (and $x1285)))
(assert
 (let (($x1287 (= z_1_4_1 z_1_7_1)))
 (and $x1287)))
(assert
 (let (($x1289 (= z_1_4_2 z_1_7_2)))
 (and $x1289)))
(assert
 (let (($x1291 (= z_1_4_3 z_1_7_3)))
 (and $x1291)))
(assert
 (let (($x1293 (= z_1_4_4 z_1_7_4)))
 (and $x1293)))
(assert
 (let (($x1295 (= z_1_4_2 z_1_8_5)))
 (and $x1295)))
(assert
 (let (($x1297 (= z_1_4_3 z_1_8_6)))
 (and $x1297)))
(assert
 (let (($x1299 (= z_1_4_4 z_1_8_4)))
 (and $x1299)))
(assert
 (let (($x1301 (= z_1_5_4 z_1_9_4)))
 (and $x1301)))
(assert
 (let (($x1303 (= z_1_5_5 z_1_9_3)))
 (and $x1303)))
(assert
 (let (($x1305 (= z_1_7_2 z_1_8_5)))
 (and $x1305)))
(assert
 (let (($x1307 (= z_1_7_3 z_1_8_6)))
 (and $x1307)))
(assert
 (let (($x1309 (= z_1_7_4 z_1_8_4)))
 (and $x1309)))
(assert
 (let (($x1311 (= z_1_10_0 z_1_11_0)))
 (and $x1311)))
(assert
 (let (($x1313 (= z_1_10_0 z_1_12_0)))
 (and $x1313)))
(assert
 (let (($x1315 (= z_1_10_0 z_1_13_0)))
 (and $x1315)))
(assert
 (let (($x1317 (= z_1_10_0 z_1_14_0)))
 (and $x1317)))
(assert
 (let (($x1319 (= z_1_10_0 z_1_15_0)))
 (and $x1319)))
(assert
 (let (($x1321 (= z_1_10_0 z_1_16_0)))
 (and $x1321)))
(assert
 (let (($x1323 (= z_1_10_0 z_1_17_0)))
 (and $x1323)))
(assert
 (let (($x1325 (= z_1_10_0 z_1_18_0)))
 (and $x1325)))
(assert
 (let (($x1327 (= z_1_10_0 z_1_19_0)))
 (and $x1327)))
(assert
 (let (($x1329 (= z_1_11_0 z_1_12_0)))
 (and $x1329)))
(assert
 (let (($x1331 (= z_1_11_0 z_1_13_0)))
 (and $x1331)))
(assert
 (let (($x1333 (= z_1_11_0 z_1_14_0)))
 (and $x1333)))
(assert
 (let (($x1335 (= z_1_11_0 z_1_15_0)))
 (and $x1335)))
(assert
 (let (($x1337 (= z_1_11_0 z_1_16_0)))
 (and $x1337)))
(assert
 (let (($x1339 (= z_1_11_0 z_1_17_0)))
 (and $x1339)))
(assert
 (let (($x1341 (= z_1_11_0 z_1_18_0)))
 (and $x1341)))
(assert
 (let (($x1343 (= z_1_11_0 z_1_19_0)))
 (and $x1343)))
(assert
 (let (($x1345 (= z_1_12_0 z_1_13_0)))
 (and $x1345)))
(assert
 (let (($x1347 (= z_1_12_0 z_1_14_0)))
 (and $x1347)))
(assert
 (let (($x1349 (= z_1_12_0 z_1_15_0)))
 (and $x1349)))
(assert
 (let (($x1351 (= z_1_12_0 z_1_16_0)))
 (and $x1351)))
(assert
 (let (($x1353 (= z_1_12_0 z_1_17_0)))
 (and $x1353)))
(assert
 (let (($x1355 (= z_1_12_0 z_1_18_0)))
 (and $x1355)))
(assert
 (let (($x1357 (= z_1_12_0 z_1_19_0)))
 (and $x1357)))
(assert
 (let (($x1359 (= z_1_13_0 z_1_14_0)))
 (and $x1359)))
(assert
 (let (($x1361 (= z_1_13_0 z_1_15_0)))
 (and $x1361)))
(assert
 (let (($x1363 (= z_1_13_0 z_1_16_0)))
 (and $x1363)))
(assert
 (let (($x1365 (= z_1_13_0 z_1_17_0)))
 (and $x1365)))
(assert
 (let (($x1367 (= z_1_13_0 z_1_18_0)))
 (and $x1367)))
(assert
 (let (($x1369 (= z_1_13_0 z_1_19_0)))
 (and $x1369)))
(assert
 (let (($x1371 (= z_1_14_0 z_1_15_0)))
 (and $x1371)))
(assert
 (let (($x1373 (= z_1_14_0 z_1_16_0)))
 (and $x1373)))
(assert
 (let (($x1375 (= z_1_14_0 z_1_17_0)))
 (and $x1375)))
(assert
 (let (($x1377 (= z_1_14_0 z_1_18_0)))
 (and $x1377)))
(assert
 (let (($x1379 (= z_1_14_0 z_1_19_0)))
 (and $x1379)))
(assert
 (let (($x1381 (= z_1_15_0 z_1_16_0)))
 (and $x1381)))
(assert
 (let (($x1383 (= z_1_15_0 z_1_17_0)))
 (and $x1383)))
(assert
 (let (($x1385 (= z_1_15_0 z_1_18_0)))
 (and $x1385)))
(assert
 (let (($x1387 (= z_1_15_0 z_1_19_0)))
 (and $x1387)))
(assert
 (let (($x1389 (= z_1_16_0 z_1_17_0)))
 (and $x1389)))
(assert
 (let (($x1391 (= z_1_16_0 z_1_18_0)))
 (and $x1391)))
(assert
 (let (($x1393 (= z_1_16_0 z_1_19_0)))
 (and $x1393)))
(assert
 (let (($x1395 (= z_1_17_0 z_1_18_0)))
 (and $x1395)))
(assert
 (let (($x1397 (= z_1_17_0 z_1_19_0)))
 (and $x1397)))
(assert
 (let (($x1399 (= z_1_18_0 z_1_19_0)))
 (and $x1399)))
(check-sat)

